50
8337

622 805
218 816
562 383
64 39
358 665
906 385
108 702
82 401
306 903
590 195
481 550
809 14
963 942
179 300
771 513
988 242
569 328
386 575
748 817
625 629
604 375
170 738
111 379
92 513
373 904
429 652
215 319
606 478
749 208
433 991
186 26
265 944
51 986
376 526
833 980
280 428
262 859
34 24
651 331
996 195
274 594
973 627
977 586
153 163
502 59
142 827
731 441
76 448
831 671
218 868
